;; sequence(s): A115357
;; terms: 1 1 1 0 2 0 1 1 1 0 2 0 1 1 1 0 2 0 1 1
;; small program: 1 + (((x mod (1 + 2)) mod 2) - (x mod 2))
;; fast program: loop(if x <= 0 then 2 else 0, (x mod (2 + (2 + 2))) - 2, 1)
(set-logic UFNIA)
(declare-fun small (Int) Int)
(declare-fun f0 (Int) Int)
(declare-fun g0 (Int) Int)
(declare-fun h0 () Int)
(declare-fun u0 (Int Int) Int)
(declare-fun v0 (Int) Int)
(declare-fun fast (Int) Int)
(assert (forall ((x Int)) (= (small x) (+ 1 (- (mod (mod x (+ 1 2)) 2) (mod x 2))))))
(assert (forall ((x Int)) (= (f0 x) (ite (<= x 0) 2 0))))
(assert (forall ((x Int)) (= (g0 x) (- (mod x (+ 2 (+ 2 2))) 2))))
(assert (= h0 1))
(assert (forall ((x Int) (y Int)) (= (u0 x y) (ite (<= x 0) y (f0 (u0 (- x 1) y))))))
(assert (forall ((x Int)) (= (v0 x) (u0 (g0 x) h0))))
(assert (forall ((x Int)) (= (fast x) (v0 x))))
(assert (exists ((c Int)) (and (>= c 0) (not (= (small c) (fast c))))))
(check-sat)
